p cnf 144 586
65 84 0
57 76 0
61 62 71 74 0
17 80 0
44 48 0
75 89 90 91 0
41 46 95 0
22 37 58 0
69 73 97 0
82 98 100 0
34 38 66 0
31 33 0
30 50 96 0
28 29 40 45 0
56 64 86 0
21 25 26 36 59 77 0
18 20 72 0
53 68 0
16 79 93 0
43 47 0
88 92 0
51 102 103 0
42 104 105 107 0
85 87 108 0
109 112 114 115 0
19 116 117 0
70 118 0
55 119 120 0
83 99 101 121 0
24 122 0
35 39 67 124 0
32 125 126 129 0
-36 -53 0
-27 -70 0
-27 -36 0
-53 -70 0
-74 -130 0
-74 -75 0
-74 -132 0
-74 -133 0
-75 -130 0
-130 -132 0
-130 -133 0
-75 -132 0
-75 -133 0
-132 -133 0
-95 -134 0
-37 -134 0
-97 -134 0
-54 -134 0
-37 -95 0
-95 -97 0
-54 -95 0
-37 -97 0
-37 -54 0
-54 -97 0
-29 -30 0
-26 -30 0
-20 -30 0
-30 -68 0
-26 -29 0
-20 -29 0
-29 -68 0
-20 -26 0
-26 -68 0
-20 -68 0
-102 -104 0
-102 -135 0
-102 -116 0
-102 -118 0
-104 -135 0
-104 -116 0
-104 -118 0
-116 -135 0
-118 -135 0
-116 -118 0
-55 -83 0
-55 -67 0
-55 -125 0
-55 -136 0
-67 -83 0
-83 -125 0
-83 -136 0
-67 -125 0
-67 -136 0
-125 -136 0
-74 -134 0
-30 -74 0
-74 -102 0
-55 -74 0
-30 -134 0
-102 -134 0
-55 -134 0
-30 -102 0
-30 -55 0
-55 -102 0
-95 -130 0
-29 -130 0
-104 -130 0
-83 -130 0
-29 -95 0
-95 -104 0
-83 -95 0
-29 -104 0
-29 -83 0
-83 -104 0
-37 -75 0
-26 -75 0
-75 -135 0
-67 -75 0
-26 -37 0
-37 -135 0
-37 -67 0
-26 -135 0
-26 -67 0
-67 -135 0
-97 -132 0
-20 -132 0
-116 -132 0
-125 -132 0
-20 -97 0
-97 -116 0
-97 -125 0
-20 -116 0
-20 -125 0
-116 -125 0
-54 -133 0
-68 -133 0
-118 -133 0
-133 -136 0
-54 -68 0
-54 -118 0
-54 -136 0
-68 -118 0
-68 -136 0
-118 -136 0
-93 -131 0
-81 -126 0
-81 -93 0
-126 -131 0
-82 -94 0
-49 -82 0
-66 -82 0
-49 -94 0
-66 -94 0
-49 -66 0
-28 -56 0
-28 -137 0
-25 -28 0
-56 -137 0
-25 -56 0
-25 -137 0
-85 -105 0
-105 -109 0
-78 -105 0
-85 -109 0
-78 -85 0
-78 -109 0
-99 -138 0
-99 -122 0
-39 -99 0
-122 -138 0
-39 -138 0
-39 -122 0
-28 -82 0
-82 -105 0
-82 -99 0
-28 -105 0
-28 -99 0
-99 -105 0
-56 -94 0
-85 -94 0
-94 -138 0
-56 -85 0
-56 -138 0
-85 -138 0
-49 -137 0
-49 -109 0
-49 -122 0
-109 -137 0
-122 -137 0
-109 -122 0
-25 -66 0
-66 -78 0
-39 -66 0
-25 -78 0
-25 -39 0
-39 -78 0
-48 -62 0
-62 -91 0
-48 -91 0
-96 -110 0
-77 -96 0
-77 -110 0
-51 -112 0
-51 -60 0
-60 -112 0
-62 -96 0
-51 -62 0
-51 -96 0
-48 -110 0
-48 -112 0
-110 -112 0
-77 -91 0
-60 -91 0
-60 -77 0
-71 -141 0
-71 -80 0
-44 -71 0
-71 -89 0
-71 -128 0
-80 -141 0
-44 -141 0
-89 -141 0
-128 -141 0
-44 -80 0
-80 -89 0
-80 -128 0
-44 -89 0
-44 -128 0
-89 -128 0
-98 -142 0
-139 -142 0
-123 -142 0
-38 -142 0
-33 -142 0
-98 -139 0
-98 -123 0
-38 -98 0
-33 -98 0
-123 -139 0
-38 -139 0
-33 -139 0
-38 -123 0
-33 -123 0
-33 -38 0
-45 -50 0
-50 -64 0
-50 -113 0
-50 -59 0
-50 -72 0
-45 -64 0
-45 -113 0
-45 -59 0
-45 -72 0
-64 -113 0
-59 -64 0
-64 -72 0
-59 -113 0
-72 -113 0
-59 -72 0
-63 -143 0
-16 -63 0
-47 -63 0
-63 -92 0
-63 -144 0
-16 -143 0
-47 -143 0
-92 -143 0
-143 -144 0
-16 -47 0
-16 -92 0
-16 -144 0
-47 -92 0
-47 -144 0
-92 -144 0
-42 -103 0
-87 -103 0
-103 -114 0
-23 -103 0
-19 -103 0
-42 -87 0
-42 -114 0
-23 -42 0
-19 -42 0
-87 -114 0
-23 -87 0
-19 -87 0
-23 -114 0
-19 -114 0
-19 -23 0
-101 -119 0
-15 -119 0
-24 -119 0
-35 -119 0
-32 -119 0
-15 -101 0
-24 -101 0
-35 -101 0
-32 -101 0
-15 -24 0
-15 -35 0
-15 -32 0
-24 -35 0
-24 -32 0
-32 -35 0
-71 -142 0
-50 -71 0
-63 -71 0
-71 -103 0
-71 -119 0
-50 -142 0
-63 -142 0
-103 -142 0
-119 -142 0
-50 -63 0
-50 -103 0
-50 -119 0
-63 -103 0
-63 -119 0
-103 -119 0
-98 -141 0
-45 -141 0
-141 -143 0
-42 -141 0
-101 -141 0
-45 -98 0
-98 -143 0
-42 -98 0
-98 -101 0
-45 -143 0
-42 -45 0
-45 -101 0
-42 -143 0
-101 -143 0
-42 -101 0
-80 -139 0
-64 -80 0
-16 -80 0
-80 -87 0
-15 -80 0
-64 -139 0
-16 -139 0
-87 -139 0
-15 -139 0
-16 -64 0
-64 -87 0
-15 -64 0
-16 -87 0
-15 -16 0
-15 -87 0
-44 -123 0
-44 -113 0
-44 -47 0
-44 -114 0
-24 -44 0
-113 -123 0
-47 -123 0
-114 -123 0
-24 -123 0
-47 -113 0
-113 -114 0
-24 -113 0
-47 -114 0
-24 -47 0
-24 -114 0
-38 -89 0
-59 -89 0
-89 -92 0
-23 -89 0
-35 -89 0
-38 -59 0
-38 -92 0
-23 -38 0
-35 -38 0
-59 -92 0
-23 -59 0
-35 -59 0
-23 -92 0
-35 -92 0
-23 -35 0
-33 -128 0
-72 -128 0
-128 -144 0
-19 -128 0
-32 -128 0
-33 -72 0
-33 -144 0
-19 -33 0
-32 -33 0
-72 -144 0
-19 -72 0
-32 -72 0
-19 -144 0
-32 -144 0
-19 -32 0
-84 -106 0
-106 -111 0
-76 -106 0
-14 -106 0
-84 -111 0
-76 -84 0
-14 -84 0
-76 -111 0
-14 -111 0
-14 -76 0
-13 -46 0
-12 -46 0
-46 -58 0
-46 -73 0
-12 -13 0
-13 -58 0
-13 -73 0
-12 -58 0
-12 -73 0
-58 -73 0
-40 -86 0
-11 -40 0
-21 -40 0
-18 -40 0
-11 -86 0
-21 -86 0
-18 -86 0
-11 -21 0
-11 -18 0
-18 -21 0
-79 -140 0
-43 -140 0
-88 -140 0
-127 -140 0
-43 -79 0
-79 -88 0
-79 -127 0
-43 -88 0
-43 -127 0
-88 -127 0
-107 -108 0
-107 -115 0
-10 -107 0
-107 -117 0
-108 -115 0
-10 -108 0
-108 -117 0
-10 -115 0
-115 -117 0
-10 -117 0
-46 -106 0
-40 -106 0
-106 -140 0
-106 -107 0
-40 -46 0
-46 -140 0
-46 -107 0
-40 -140 0
-40 -107 0
-107 -140 0
-13 -84 0
-84 -86 0
-79 -84 0
-84 -108 0
-13 -86 0
-13 -79 0
-13 -108 0
-79 -86 0
-86 -108 0
-79 -108 0
-12 -111 0
-11 -111 0
-43 -111 0
-111 -115 0
-11 -12 0
-12 -43 0
-12 -115 0
-11 -43 0
-11 -115 0
-43 -115 0
-58 -76 0
-21 -76 0
-76 -88 0
-10 -76 0
-21 -58 0
-58 -88 0
-10 -58 0
-21 -88 0
-10 -21 0
-10 -88 0
-14 -73 0
-14 -18 0
-14 -127 0
-14 -117 0
-18 -73 0
-73 -127 0
-73 -117 0
-18 -127 0
-18 -117 0
-117 -127 0
-8 -9 0
-9 -65 0
-9 -57 0
-9 -52 0
-8 -65 0
-8 -57 0
-8 -52 0
-57 -65 0
-52 -65 0
-52 -57 0
-7 -61 0
-17 -61 0
-61 -90 0
-6 -61 0
-7 -17 0
-7 -90 0
-6 -7 0
-17 -90 0
-6 -17 0
-6 -90 0
-5 -41 0
-4 -5 0
-5 -22 0
-5 -69 0
-4 -41 0
-22 -41 0
-41 -69 0
-4 -22 0
-4 -69 0
-22 -69 0
-3 -100 0
-2 -3 0
-3 -34 0
-3 -31 0
-2 -100 0
-34 -100 0
-31 -100 0
-2 -34 0
-2 -31 0
-31 -34 0
-120 -121 0
-1 -120 0
-120 -124 0
-120 -129 0
-1 -121 0
-121 -124 0
-121 -129 0
-1 -124 0
-1 -129 0
-124 -129 0
-9 -61 0
-5 -9 0
-3 -9 0
-9 -120 0
-5 -61 0
-3 -61 0
-61 -120 0
-3 -5 0
-5 -120 0
-3 -120 0
-7 -8 0
-8 -41 0
-8 -100 0
-8 -121 0
-7 -41 0
-7 -100 0
-7 -121 0
-41 -100 0
-41 -121 0
-100 -121 0
-17 -65 0
-4 -65 0
-2 -65 0
-1 -65 0
-4 -17 0
-2 -17 0
-1 -17 0
-2 -4 0
-1 -4 0
-1 -2 0
-57 -90 0
-22 -57 0
-34 -57 0
-57 -124 0
-22 -90 0
-34 -90 0
-90 -124 0
-22 -34 0
-22 -124 0
-34 -124 0
-6 -52 0
-52 -69 0
-31 -52 0
-52 -129 0
-6 -69 0
-6 -31 0
-6 -129 0
-31 -69 0
-69 -129 0
-31 -129 0
